(set-logic QF_LRA)
(declare-fun T1 () Real )
(declare-fun T2 () Real )
(declare-fun T3 () Real )
(declare-fun T4 () Real )
(declare-fun T5 () Real )
(declare-fun T6 () Real )
(declare-fun Z () Real )
(assert ( and 
(or ( <= ( + T1 99 ) T2 ) ( <= ( + T2 74 ) T1 ) )
(or ( <= ( + T1 140 )  ( + T2 74 ) ) ( <= ( + T2 155 )( + T1 99 ) ) )
(or ( <= ( + T1 216 )  ( + T2 155 ) ) ( <= ( + T2 232 )( + T1 140 ) ) )
(or ( <= ( + T1 280 )  ( + T2 232 ) ) ( <= ( + T2 245 )( + T1 216 ) ) )
(or ( <= ( + T1 99 ) T3 ) ( <= ( + T3 79 ) T1 ) )
(or ( <= ( + T1 140 )  ( + T3 79 ) ) ( <= ( + T3 109 )( + T1 99 ) ) )
(or ( <= ( + T1 216 )  ( + T3 109 ) ) ( <= ( + T3 170 )( + T1 140 ) ) )
(or ( <= ( + T1 280 )  ( + T3 170 ) ) ( <= ( + T3 225 )( + T1 216 ) ) )
(or ( <= ( + T1 99 ) T4 ) ( <= ( + T4 96 ) T1 ) )
(or ( <= ( + T1 140 )  ( + T4 96 ) ) ( <= ( + T4 102 )( + T1 99 ) ) )
(or ( <= ( + T1 216 )  ( + T4 102 ) ) ( <= ( + T4 142 )( + T1 140 ) ) )
(or ( <= ( + T1 280 )  ( + T4 142 ) ) ( <= ( + T4 232 )( + T1 216 ) ) )
(or ( <= ( + T1 99 ) T5 ) ( <= ( + T5 70 ) T1 ) )
(or ( <= ( + T1 140 )  ( + T5 70 ) ) ( <= ( + T5 88 )( + T1 99 ) ) )
(or ( <= ( + T1 216 )  ( + T5 88 ) ) ( <= ( + T5 185 )( + T1 140 ) ) )
(or ( <= ( + T1 280 )  ( + T5 185 ) ) ( <= ( + T5 236 )( + T1 216 ) ) )
(or ( <= ( + T1 99 ) T6 ) ( <= ( + T6 48 ) T1 ) )
(or ( <= ( + T1 140 )  ( + T6 48 ) ) ( <= ( + T6 82 )( + T1 99 ) ) )
(or ( <= ( + T1 216 )  ( + T6 82 ) ) ( <= ( + T6 154 )( + T1 140 ) ) )
(or ( <= ( + T1 280 )  ( + T6 154 ) ) ( <= ( + T6 175 )( + T1 216 ) ) )
(or ( <= ( + T2 74 ) T3 ) ( <= ( + T3 79 ) T2 ) )
(or ( <= ( + T2 155 )  ( + T3 79 ) ) ( <= ( + T3 109 )( + T2 74 ) ) )
(or ( <= ( + T2 232 )  ( + T3 109 ) ) ( <= ( + T3 170 )( + T2 155 ) ) )
(or ( <= ( + T2 245 )  ( + T3 170 ) ) ( <= ( + T3 225 )( + T2 232 ) ) )
(or ( <= ( + T2 74 ) T4 ) ( <= ( + T4 96 ) T2 ) )
(or ( <= ( + T2 155 )  ( + T4 96 ) ) ( <= ( + T4 102 )( + T2 74 ) ) )
(or ( <= ( + T2 232 )  ( + T4 102 ) ) ( <= ( + T4 142 )( + T2 155 ) ) )
(or ( <= ( + T2 245 )  ( + T4 142 ) ) ( <= ( + T4 232 )( + T2 232 ) ) )
(or ( <= ( + T2 74 ) T5 ) ( <= ( + T5 70 ) T2 ) )
(or ( <= ( + T2 155 )  ( + T5 70 ) ) ( <= ( + T5 88 )( + T2 74 ) ) )
(or ( <= ( + T2 232 )  ( + T5 88 ) ) ( <= ( + T5 185 )( + T2 155 ) ) )
(or ( <= ( + T2 245 )  ( + T5 185 ) ) ( <= ( + T5 236 )( + T2 232 ) ) )
(or ( <= ( + T2 74 ) T6 ) ( <= ( + T6 48 ) T2 ) )
(or ( <= ( + T2 155 )  ( + T6 48 ) ) ( <= ( + T6 82 )( + T2 74 ) ) )
(or ( <= ( + T2 232 )  ( + T6 82 ) ) ( <= ( + T6 154 )( + T2 155 ) ) )
(or ( <= ( + T2 245 )  ( + T6 154 ) ) ( <= ( + T6 175 )( + T2 232 ) ) )
(or ( <= ( + T3 79 ) T4 ) ( <= ( + T4 96 ) T3 ) )
(or ( <= ( + T3 109 )  ( + T4 96 ) ) ( <= ( + T4 102 )( + T3 79 ) ) )
(or ( <= ( + T3 170 )  ( + T4 102 ) ) ( <= ( + T4 142 )( + T3 109 ) ) )
(or ( <= ( + T3 225 )  ( + T4 142 ) ) ( <= ( + T4 232 )( + T3 170 ) ) )
(or ( <= ( + T3 79 ) T5 ) ( <= ( + T5 70 ) T3 ) )
(or ( <= ( + T3 109 )  ( + T5 70 ) ) ( <= ( + T5 88 )( + T3 79 ) ) )
(or ( <= ( + T3 170 )  ( + T5 88 ) ) ( <= ( + T5 185 )( + T3 109 ) ) )
(or ( <= ( + T3 225 )  ( + T5 185 ) ) ( <= ( + T5 236 )( + T3 170 ) ) )
(or ( <= ( + T3 79 ) T6 ) ( <= ( + T6 48 ) T3 ) )
(or ( <= ( + T3 109 )  ( + T6 48 ) ) ( <= ( + T6 82 )( + T3 79 ) ) )
(or ( <= ( + T3 170 )  ( + T6 82 ) ) ( <= ( + T6 154 )( + T3 109 ) ) )
(or ( <= ( + T3 225 )  ( + T6 154 ) ) ( <= ( + T6 175 )( + T3 170 ) ) )
(or ( <= ( + T4 96 ) T5 ) ( <= ( + T5 70 ) T4 ) )
(or ( <= ( + T4 102 )  ( + T5 70 ) ) ( <= ( + T5 88 )( + T4 96 ) ) )
(or ( <= ( + T4 142 )  ( + T5 88 ) ) ( <= ( + T5 185 )( + T4 102 ) ) )
(or ( <= ( + T4 232 )  ( + T5 185 ) ) ( <= ( + T5 236 )( + T4 142 ) ) )
(or ( <= ( + T4 96 ) T6 ) ( <= ( + T6 48 ) T4 ) )
(or ( <= ( + T4 102 )  ( + T6 48 ) ) ( <= ( + T6 82 )( + T4 96 ) ) )
(or ( <= ( + T4 142 )  ( + T6 82 ) ) ( <= ( + T6 154 )( + T4 102 ) ) )
(or ( <= ( + T4 232 )  ( + T6 154 ) ) ( <= ( + T6 175 )( + T4 142 ) ) )
(or ( <= ( + T5 70 ) T6 ) ( <= ( + T6 48 ) T5 ) )
(or ( <= ( + T5 88 )  ( + T6 48 ) ) ( <= ( + T6 82 )( + T5 70 ) ) )
(or ( <= ( + T5 185 )  ( + T6 82 ) ) ( <= ( + T6 154 )( + T5 88 ) ) )
(or ( <= ( + T5 236 )  ( + T6 154 ) ) ( <= ( + T6 175 )( + T5 185 ) ) )
( <= ( + T1 280 ) Z)
( <= ( + T2 245 ) Z)
( <= ( + T3 225 ) Z)
( <= ( + T4 232 ) Z)
( <= ( + T5 236 ) Z)
( <= ( + T6 175 ) Z)
( >= T1 0 )
( >= T2 0 )
( >= T3 0 )
( >= T4 0 )
( >= T5 0 )
( >= T6 0 )
) )
(minimize Z)
(check-sat)